3 16 1 10
5 5 10 1 1 6 1 19 10 6 4 2 14 6 16 20 
9.25 6.76 11.12 11.68 6.26 9.84 0.74 2.89 7.03 11.9 5.95 5.85 9.55 12.43 2.15 12.69 
8 8 8 8 8 8 8 8 8 8 8 8 8 8 8 8 
3.64 10.15 13.04 12.17 4.23 10.21 6.57 10.48 14.98 0.01 4.41 8.5 2.32 2.86 11.23 12.31 
1 1 1 1 1 1 1 1 1 1 1 1 1 1 1 1 
1 1 1 1 1 1 1 1 1 1 1 1 1 1 1 1 
1 1 1 1 1 1 1 1 1 1 1 1 1 1 1 1 
0.01 0.01 0.01 0.01 0.01 0.01 0.01 0.01 0.01 0.01 0.01 0.01 0.01 0.01 0.01 0.01 
0.02 0.02 0.02 0.02 0.02 0.02 0.02 0.02 0.02 0.02 0.02 0.02 0.02 0.02 0.02 0.02 
1 1 1 1 1 1 1 1 1 1 1 1 1 1 1 1 
